32      4       
16      14      15      15      
0       0       0       0       0       1       2       
5       0       1       0       12      1       3       
9       0       7       4       0       1       4       
8       0       0       1       15      1       5       
10      0       0       10      1       1       6       
7       5       5       0       0       2       14      7       
7       5       0       10      0       1       8       
3       12      0       0       14      2       11      9       
7       11      0       7       0       2       16      10      
8       0       0       6       14      2       19      12      
7       0       5       0       13      2       16      15      
6       16      0       0       7       1       13      
1       12      0       0       15      1       15      
5       0       1       0       1       1       16      
8       0       7       6       0       1       17      
8       0       10      7       0       1       17      
10      0       5       0       1       1       18      
9       6       0       6       0       1       20      
10      5       0       7       0       1       20      
1       7       8       0       0       1       21      
3       1       4       0       0       1       22      
1       0       14      0       6       2       26      23      
3       0       3       0       1       2       28      24      
5       0       0       14      1       1       25      
9       11      12      0       0       1       27      
5       3       0       6       0       1       28      
10      0       0       7       11      1       29      
4       12      14      0       0       1       29      
1       4       0       7       0       1       30      
6       10      9       0       0       1       31      
7       0       0       15      1       1       32      
0       0       0       0       0       0       
